;; translated from ./bv/heapsort3.c.vmt
;; original benchmark available at: https://es-static.fbk.eu/people/griggio/ic3ia/index.html
;; author: Alberto Griggio <griggio@fbk.eu>
(set-logic HORN)
(declare-fun state (Bool Bool Bool (_ BitVec 32) (_ BitVec 32) (_ BitVec 32) (_ BitVec 32) (_ BitVec 32) (_ BitVec 32)) Bool)
(assert (forall ((|.PC.0| Bool) (|.PC.0.next| Bool) (|.PC.1.next| Bool) (|.PC.2.next| Bool) (|__RET__$main.next| (_ BitVec 32)) (|__RET__$main| (_ BitVec 32)) (|i__8$main.next| (_ BitVec 32)) (|i__8$main| (_ BitVec 32)) (|n__2$main| (_ BitVec 32)) (|n__2$main.next| (_ BitVec 32)) (|l__4$main| (_ BitVec 32)) (|l__4$main.next| (_ BitVec 32)) (|j__10$main.next| (_ BitVec 32)) (|j__10$main| (_ BitVec 32)) (|r__6$main| (_ BitVec 32)) (|r__6$main.next| (_ BitVec 32)) (|r__6$main.SSA.1.ssa| (_ BitVec 32)) (|l__4$main.SSA.1.ssa| (_ BitVec 32)) (|__NONDET_INLINE_INIT__3__7$main#0| (_ BitVec 32)) (|.PC.2| Bool) (|.PC.1| Bool)) (=> (let ((.def_15 (not .PC.2)))
(let ((.def_12 (not .PC.1)))
(let ((.def_10 (not .PC.0)))
(let ((.def_13 (and .def_10 .def_12)))
(let ((.def_16 (and .def_13 .def_15)))
.def_16))))) (state |.PC.0| |.PC.1| |.PC.2| |i__8$main| |__RET__$main| |j__10$main| |r__6$main| |l__4$main| |n__2$main|))))
(assert (forall ((|.PC.0| Bool) (|.PC.0.next| Bool) (|.PC.1.next| Bool) (|.PC.2.next| Bool) (|__RET__$main.next| (_ BitVec 32)) (|__RET__$main| (_ BitVec 32)) (|i__8$main.next| (_ BitVec 32)) (|i__8$main| (_ BitVec 32)) (|n__2$main| (_ BitVec 32)) (|n__2$main.next| (_ BitVec 32)) (|l__4$main| (_ BitVec 32)) (|l__4$main.next| (_ BitVec 32)) (|j__10$main.next| (_ BitVec 32)) (|j__10$main| (_ BitVec 32)) (|r__6$main| (_ BitVec 32)) (|r__6$main.next| (_ BitVec 32)) (|r__6$main.SSA.1.ssa| (_ BitVec 32)) (|l__4$main.SSA.1.ssa| (_ BitVec 32)) (|__NONDET_INLINE_INIT__3__7$main#0| (_ BitVec 32)) (|.PC.2| Bool) (|.PC.1| Bool)) (=> (and (state |.PC.0| |.PC.1| |.PC.2| |i__8$main| |__RET__$main| |j__10$main| |r__6$main| |l__4$main| |n__2$main|) (let ((.def_12 (not .PC.1)))
(let ((.def_72 (and .PC.0 .def_12)))
(let ((.def_194 (and .PC.2 .def_72)))
(let ((.def_66 (not .PC.1.next)))
(let ((.def_68 (and .def_66 .PC.0.next)))
(let ((.def_190 (and .PC.2.next .def_68)))
(let ((.def_195 (and .def_190 .def_194)))
(let ((.def_57 (= __RET__$main __RET__$main.next)))
(let ((.def_53 (= i__8$main i__8$main.next)))
(let ((.def_185 (and .def_53 .def_57)))
(let ((.def_84 (= n__2$main.next n__2$main)))
(let ((.def_186 (and .def_84 .def_185)))
(let ((.def_86 (= l__4$main.next l__4$main)))
(let ((.def_187 (and .def_86 .def_186)))
(let ((.def_61 (= j__10$main j__10$main.next)))
(let ((.def_188 (and .def_61 .def_187)))
(let ((.def_88 (= r__6$main.next r__6$main)))
(let ((.def_189 (and .def_88 .def_188)))
(let ((.def_191 (and .def_189 .def_190)))
(let ((.def_10 (not .PC.0)))
(let ((.def_13 (and .def_10 .def_12)))
(let ((.def_184 (and .def_13 .PC.2)))
(let ((.def_192 (and .def_184 .def_191)))
(let ((.def_174 (bvshl j__10$main (_ bv1 32))))
(let ((.def_175 (= j__10$main.next .def_174)))
(let ((.def_167 (bvslt i__8$main (_ bv1 32))))
(let ((.def_168 (not .def_167)))
(let ((.def_157 (bvadd (_ bv1 32) j__10$main)))
(let ((.def_161 (bvslt n__2$main .def_157)))
(let ((.def_162 (not .def_161)))
(let ((.def_158 (bvslt .def_157 (_ bv1 32))))
(let ((.def_159 (not .def_158)))
(let ((.def_133 (bvslt j__10$main (_ bv1 32))))
(let ((.def_154 (not .def_133)))
(let ((.def_98 (bvslt r__6$main j__10$main)))
(let ((.def_131 (not .def_98)))
(let ((.def_130 (bvslt j__10$main r__6$main)))
(let ((.def_132 (and .def_130 .def_131)))
(let ((.def_155 (and .def_132 .def_154)))
(let ((.def_152 (bvslt n__2$main j__10$main)))
(let ((.def_153 (not .def_152)))
(let ((.def_156 (and .def_153 .def_155)))
(let ((.def_160 (and .def_156 .def_159)))
(let ((.def_163 (and .def_160 .def_162)))
(let ((.def_150 (not .def_130)))
(let ((.def_151 (and .def_131 .def_150)))
(let ((.def_164 (or .def_151 .def_163)))
(let ((.def_165 (and .def_154 .def_164)))
(let ((.def_166 (and .def_153 .def_165)))
(let ((.def_169 (and .def_166 .def_168)))
(let ((.def_148 (bvslt n__2$main i__8$main)))
(let ((.def_149 (not .def_148)))
(let ((.def_170 (and .def_149 .def_169)))
(let ((.def_171 (and .def_154 .def_170)))
(let ((.def_172 (and .def_153 .def_171)))
(let ((.def_147 (= i__8$main.next j__10$main)))
(let ((.def_173 (and .def_147 .def_172)))
(let ((.def_176 (and .def_173 .def_175)))
(let ((.def_177 (and .def_57 .def_176)))
(let ((.def_178 (and .def_84 .def_177)))
(let ((.def_179 (and .def_86 .def_178)))
(let ((.def_180 (and .def_88 .def_179)))
(let ((.def_90 (and .PC.1.next .PC.0.next)))
(let ((.def_64 (not .PC.2.next)))
(let ((.def_91 (and .def_64 .def_90)))
(let ((.def_181 (and .def_91 .def_180)))
(let ((.def_126 (and .PC.0 .PC.1)))
(let ((.def_15 (not .PC.2)))
(let ((.def_127 (and .def_15 .def_126)))
(let ((.def_182 (and .def_127 .def_181)))
(let ((.def_141 (not .PC.0.next)))
(let ((.def_142 (and .def_66 .def_141)))
(let ((.def_143 (and .PC.2.next .def_142)))
(let ((.def_134 (and .def_132 .def_133)))
(let ((.def_135 (and .def_53 .def_134)))
(let ((.def_136 (and .def_57 .def_135)))
(let ((.def_137 (and .def_84 .def_136)))
(let ((.def_138 (and .def_86 .def_137)))
(let ((.def_139 (and .def_61 .def_138)))
(let ((.def_140 (and .def_88 .def_139)))
(let ((.def_144 (and .def_140 .def_143)))
(let ((.def_145 (and .def_127 .def_144)))
(let ((.def_116 (bvadd (_ bv4294967295 32) r__6$main)))
(let ((.def_117 (= r__6$main.next .def_116)))
(let ((.def_112 (bvslt r__6$main (_ bv1 32))))
(let ((.def_113 (not .def_112)))
(let ((.def_97 (bvslt (_ bv1 32) l__4$main)))
(let ((.def_110 (not .def_97)))
(let ((.def_111 (and .def_98 .def_110)))
(let ((.def_114 (and .def_111 .def_113)))
(let ((.def_108 (bvslt n__2$main r__6$main)))
(let ((.def_109 (not .def_108)))
(let ((.def_115 (and .def_109 .def_114)))
(let ((.def_118 (and .def_115 .def_117)))
(let ((.def_119 (and .def_86 .def_118)))
(let ((.def_104 (bvadd (_ bv4294967295 32) l__4$main)))
(let ((.def_105 (= l__4$main.next .def_104)))
(let ((.def_100 (bvslt l__4$main (_ bv1 32))))
(let ((.def_101 (not .def_100)))
(let ((.def_99 (and .def_97 .def_98)))
(let ((.def_102 (and .def_99 .def_101)))
(let ((.def_95 (bvslt n__2$main l__4$main)))
(let ((.def_96 (not .def_95)))
(let ((.def_103 (and .def_96 .def_102)))
(let ((.def_106 (and .def_103 .def_105)))
(let ((.def_107 (and .def_88 .def_106)))
(let ((.def_120 (or .def_107 .def_119)))
(let ((.def_121 (and .def_53 .def_120)))
(let ((.def_122 (and .def_57 .def_121)))
(let ((.def_123 (and .def_84 .def_122)))
(let ((.def_124 (and .def_61 .def_123)))
(let ((.def_69 (and .def_64 .def_68)))
(let ((.def_125 (and .def_69 .def_124)))
(let ((.def_128 (and .def_125 .def_127)))
(let ((.def_79 (bvshl l__4$main (_ bv1 32))))
(let ((.def_80 (= j__10$main.next .def_79)))
(let ((.def_77 (= i__8$main.next l__4$main)))
(let ((.def_75 (bvslt (_ bv1 32) r__6$main)))
(let ((.def_78 (and .def_75 .def_77)))
(let ((.def_81 (and .def_78 .def_80)))
(let ((.def_82 (and .def_57 .def_81)))
(let ((.def_85 (and .def_82 .def_84)))
(let ((.def_87 (and .def_85 .def_86)))
(let ((.def_89 (and .def_87 .def_88)))
(let ((.def_92 (and .def_89 .def_91)))
(let ((.def_73 (and .def_15 .def_72)))
(let ((.def_93 (and .def_73 .def_92)))
(let ((.def_46 (bvadd (_ bv4294967295 32) r__6$main.SSA.1.ssa)))
(let ((.def_47 (= r__6$main.next .def_46)))
(let ((.def_35 (bvslt (_ bv1 32) l__4$main.SSA.1.ssa)))
(let ((.def_44 (not .def_35)))
(let ((.def_29 (bvsdiv n__2$main.next (_ bv2 32))))
(let ((.def_30 (bvadd (_ bv1 32) .def_29)))
(let ((.def_32 (= .def_30 l__4$main.SSA.1.ssa)))
(let ((.def_25 (bvslt n__2$main.next (_ bv1 32))))
(let ((.def_26 (not .def_25)))
(let ((.def_23 (= n__2$main.next |__NONDET_INLINE_INIT__3__7$main#0|)))
(let ((.def_27 (and .def_23 .def_26)))
(let ((.def_33 (and .def_27 .def_32)))
(let ((.def_21 (= r__6$main.SSA.1.ssa n__2$main.next)))
(let ((.def_34 (and .def_21 .def_33)))
(let ((.def_45 (and .def_34 .def_44)))
(let ((.def_48 (and .def_45 .def_47)))
(let ((.def_43 (= l__4$main.SSA.1.ssa l__4$main.next)))
(let ((.def_49 (and .def_43 .def_48)))
(let ((.def_38 (bvadd (_ bv4294967295 32) l__4$main.SSA.1.ssa)))
(let ((.def_40 (= .def_38 l__4$main.next)))
(let ((.def_36 (and .def_34 .def_35)))
(let ((.def_41 (and .def_36 .def_40)))
(let ((.def_19 (= r__6$main.next r__6$main.SSA.1.ssa)))
(let ((.def_42 (and .def_19 .def_41)))
(let ((.def_50 (or .def_42 .def_49)))
(let ((.def_54 (and .def_50 .def_53)))
(let ((.def_58 (and .def_54 .def_57)))
(let ((.def_62 (and .def_58 .def_61)))
(let ((.def_70 (and .def_62 .def_69)))
(let ((.def_16 (and .def_13 .def_15)))
(let ((.def_71 (and .def_16 .def_70)))
(let ((.def_94 (or .def_71 .def_93)))
(let ((.def_129 (or .def_94 .def_128)))
(let ((.def_146 (or .def_129 .def_145)))
(let ((.def_183 (or .def_146 .def_182)))
(let ((.def_193 (or .def_183 .def_192)))
(let ((.def_196 (or .def_193 .def_195)))
.def_196))))))))))))))))))))))))))))))))))))))))))))))))))))))))))))))))))))))))))))))))))))))))))))))))))))))))))))))))))))))))))))))))))))))))))))))))))))))))))))))))))))) (state |.PC.0.next| |.PC.1.next| |.PC.2.next| |i__8$main.next| |__RET__$main.next| |j__10$main.next| |r__6$main.next| |l__4$main.next| |n__2$main.next|))))
(assert (forall ((|.PC.0| Bool) (|.PC.0.next| Bool) (|.PC.1.next| Bool) (|.PC.2.next| Bool) (|__RET__$main.next| (_ BitVec 32)) (|__RET__$main| (_ BitVec 32)) (|i__8$main.next| (_ BitVec 32)) (|i__8$main| (_ BitVec 32)) (|n__2$main| (_ BitVec 32)) (|n__2$main.next| (_ BitVec 32)) (|l__4$main| (_ BitVec 32)) (|l__4$main.next| (_ BitVec 32)) (|j__10$main.next| (_ BitVec 32)) (|j__10$main| (_ BitVec 32)) (|r__6$main| (_ BitVec 32)) (|r__6$main.next| (_ BitVec 32)) (|r__6$main.SSA.1.ssa| (_ BitVec 32)) (|l__4$main.SSA.1.ssa| (_ BitVec 32)) (|__NONDET_INLINE_INIT__3__7$main#0| (_ BitVec 32)) (|.PC.2| Bool) (|.PC.1| Bool)) (=> (state |.PC.0| |.PC.1| |.PC.2| |i__8$main| |__RET__$main| |j__10$main| |r__6$main| |l__4$main| |n__2$main|) (let ((.def_12 (not .PC.1)))
(let ((.def_72 (and .PC.0 .def_12)))
(let ((.def_194 (and .PC.2 .def_72)))
(let ((.def_197 (not .def_194)))
.def_197)))))))
(check-sat)
